\* ILP *\
Minimize
OBJ: __dummy
Subject To
_C1: y_{0,00212} + y_{0,00213} + y_{0,02003} + y_{0,02004} + y_{0,02112}
 + y_{0,20003} + y_{0,20004} + y_{0,20112} + z_{0,02112} + z_{0,20112} = 1
_C10: y_{0,20004} - y_{1,20003} - y_{1,20004} - z_{1,20112} <= 0
_C100: - y_{4,20003} - y_{4,20004} - y_{4,20112} + z_{5,20112} <= 0
_C101: - y_{4,02003} - y_{4,02004} - y_{4,02112} + z_{5,02112} <= 0
_C102: - y_{6,00212} - y_{6,00213} - y_{6,02112} - y_{6,20112} + z_{5,02112}
 + z_{5,20112} <= 0
_C103: - y_{5,20003} - y_{5,20004} - y_{5,20112} + z_{6,20112} <= 0
_C104: - y_{5,02003} - y_{5,02004} - y_{5,02112} + z_{6,02112} <= 0
_C105: - y_{0,00212} - y_{0,00213} - y_{0,02112} - y_{0,20112} + z_{6,02112}
 + z_{6,20112} <= 0
_C106: 0.5 N - 0.5 s - y_{00033} - y_{02012} - y_{20012} - y_{22002} = 4.5
_C107: - s - y_{0,00212} - y_{0,02003} - y_{0,20003} - y_{02012} - y_{1,00212}
 - y_{1,02003} - y_{1,20003} - y_{2,00212} - y_{2,02003} - y_{2,20003}
 - y_{20012} - y_{3,00212} - y_{3,02003} - y_{3,20003} - y_{4,00212}
 - y_{4,02003} - y_{4,20003} - y_{5,00212} - y_{5,02003} - y_{5,20003}
 - y_{6,00212} - y_{6,02003} - y_{6,20003} = -18
_C108: s - 2 y_{0,00212} - 3 y_{0,00213} - 3 y_{0,02003} - 4 y_{0,02004}
 - 2 y_{0,02112} - 3 y_{0,20003} - 4 y_{0,20004} - 2 y_{0,20112}
 - 2 y_{1,00212} - 3 y_{1,00213} - 3 y_{1,02003} - 4 y_{1,02004}
 - 2 y_{1,02112} - 3 y_{1,20003} - 4 y_{1,20004} - 2 y_{1,20112}
 - 2 y_{2,00212} - 3 y_{2,00213} - 3 y_{2,02003} - 4 y_{2,02004}
 - 2 y_{2,02112} - 3 y_{2,20003} - 4 y_{2,20004} - 2 y_{2,20112}
 - 2 y_{3,00212} - 3 y_{3,00213} - 3 y_{3,02003} - 4 y_{3,02004}
 - 2 y_{3,02112} - 3 y_{3,20003} - 4 y_{3,20004} - 2 y_{3,20112}
 - 2 y_{4,00212} - 3 y_{4,00213} - 3 y_{4,02003} - 4 y_{4,02004}
 - 2 y_{4,02112} - 3 y_{4,20003} - 4 y_{4,20004} - 2 y_{4,20112}
 - 2 y_{5,00212} - 3 y_{5,00213} - 3 y_{5,02003} - 4 y_{5,02004}
 - 2 y_{5,02112} - 3 y_{5,20003} - 4 y_{5,20004} - 2 y_{5,20112}
 - 2 y_{6,00212} - 3 y_{6,00213} - 3 y_{6,02003} - 4 y_{6,02004}
 - 2 y_{6,02112} - 3 y_{6,20003} - 4 y_{6,20004} - 2 y_{6,20112}
 - 2 z_{0,02112} - 2 z_{0,20112} - 2 z_{1,02112} - 2 z_{1,20112}
 - 2 z_{2,02112} - 2 z_{2,20112} - 2 z_{3,02112} - 2 z_{3,20112}
 - 2 z_{4,02112} - 2 z_{4,20112} - 2 z_{5,02112} - 2 z_{5,20112}
 - 2 z_{6,02112} - 2 z_{6,20112} = -7
_C109: y_{0,20003} + y_{0,20004} + y_{0,20112} + y_{1,20003} + y_{1,20004}
 + y_{1,20112} + y_{2,20003} + y_{2,20004} + y_{2,20112} + y_{20012}
 + y_{22002} + y_{3,20003} + y_{3,20004} + y_{3,20112} + y_{4,20003}
 + y_{4,20004} + y_{4,20112} + y_{5,20003} + y_{5,20004} + y_{5,20112}
 + y_{6,20003} + y_{6,20004} + y_{6,20112} + z_{0,20112} + z_{1,20112}
 + z_{2,20112} + z_{3,20112} + z_{4,20112} + z_{5,20112} + z_{6,20112} = 5
_C11: y_{0,02004} - y_{1,02003} - y_{1,02004} - z_{1,02112} <= 0
_C110: y_{22002} <= 1
_C111: - y_{0,20003} - y_{1,20003} - y_{2,20003} - y_{20012} - y_{22002}
 - y_{3,20003} - y_{4,20003} - y_{5,20003} - y_{6,20003} >= -4
_C112: - y_{0,02003} - y_{02012} - y_{1,02003} - y_{2,02003} - y_{22002}
 - y_{3,02003} - y_{4,02003} - y_{5,02003} - y_{6,02003} >= -4
_C113: 3 N - 3 s - 4 y_{0,00212} - 4 y_{0,00213} - 2 y_{0,02003}
 - 2 y_{0,02004} - 4 y_{0,02112} - 2 y_{0,20003} - 2 y_{0,20004}
 - 4 y_{0,20112} - 6 y_{00033} - 4 y_{02012} - 4 y_{1,00212} - 4 y_{1,00213}
 - 2 y_{1,02003} - 2 y_{1,02004} - 4 y_{1,02112} - 2 y_{1,20003}
 - 2 y_{1,20004} - 4 y_{1,20112} - 4 y_{2,00212} - 4 y_{2,00213}
 - 2 y_{2,02003} - 2 y_{2,02004} - 4 y_{2,02112} - 2 y_{2,20003}
 - 2 y_{2,20004} - 4 y_{2,20112} - 4 y_{20012} - 4 y_{22002} - 4 y_{3,00212}
 - 4 y_{3,00213} - 2 y_{3,02003} - 2 y_{3,02004} - 4 y_{3,02112}
 - 2 y_{3,20003} - 2 y_{3,20004} - 4 y_{3,20112} - 4 y_{4,00212}
 - 4 y_{4,00213} - 2 y_{4,02003} - 2 y_{4,02004} - 4 y_{4,02112}
 - 2 y_{4,20003} - 2 y_{4,20004} - 4 y_{4,20112} - 4 y_{5,00212}
 - 4 y_{5,00213} - 2 y_{5,02003} - 2 y_{5,02004} - 4 y_{5,02112}
 - 2 y_{5,20003} - 2 y_{5,20004} - 4 y_{5,20112} - 4 y_{6,00212}
 - 4 y_{6,00213} - 2 y_{6,02003} - 2 y_{6,02004} - 4 y_{6,02112}
 - 2 y_{6,20003} - 2 y_{6,20004} - 4 y_{6,20112} - 4 z_{0,02112}
 - 4 z_{0,20112} - 4 z_{1,02112} - 4 z_{1,20112} - 4 z_{2,02112}
 - 4 z_{2,20112} - 4 z_{3,02112} - 4 z_{3,20112} - 4 z_{4,02112}
 - 4 z_{4,20112} - 4 z_{5,02112} - 4 z_{5,20112} - 4 z_{6,02112}
 - 4 z_{6,20112} = 13
_C12: - y_{0,20003} - y_{0,20004} - y_{0,20112} + y_{1,20004} <= 0
_C13: - y_{0,02003} - y_{0,02004} - y_{0,02112} + y_{1,02004} <= 0
_C14: y_{1,20004} - y_{2,20003} - y_{2,20004} - z_{2,20112} <= 0
_C15: y_{1,02004} - y_{2,02003} - y_{2,02004} - z_{2,02112} <= 0
_C16: - y_{1,20003} - y_{1,20004} - y_{1,20112} + y_{2,20004} <= 0
_C17: - y_{1,02003} - y_{1,02004} - y_{1,02112} + y_{2,02004} <= 0
_C18: y_{2,20004} - y_{3,20003} - y_{3,20004} - z_{3,20112} <= 0
_C19: y_{2,02004} - y_{3,02003} - y_{3,02004} - z_{3,02112} <= 0
_C2: y_{1,00212} + y_{1,00213} + y_{1,02003} + y_{1,02004} + y_{1,02112}
 + y_{1,20003} + y_{1,20004} + y_{1,20112} + z_{1,02112} + z_{1,20112} = 1
_C20: - y_{2,20003} - y_{2,20004} - y_{2,20112} + y_{3,20004} <= 0
_C21: - y_{2,02003} - y_{2,02004} - y_{2,02112} + y_{3,02004} <= 0
_C22: y_{3,20004} - y_{4,20003} - y_{4,20004} - z_{4,20112} <= 0
_C23: y_{3,02004} - y_{4,02003} - y_{4,02004} - z_{4,02112} <= 0
_C24: - y_{3,20003} - y_{3,20004} - y_{3,20112} + y_{4,20004} <= 0
_C25: - y_{3,02003} - y_{3,02004} - y_{3,02112} + y_{4,02004} <= 0
_C26: y_{4,20004} - y_{5,20003} - y_{5,20004} - z_{5,20112} <= 0
_C27: y_{4,02004} - y_{5,02003} - y_{5,02004} - z_{5,02112} <= 0
_C28: - y_{4,20003} - y_{4,20004} - y_{4,20112} + y_{5,20004} <= 0
_C29: - y_{4,02003} - y_{4,02004} - y_{4,02112} + y_{5,02004} <= 0
_C3: y_{2,00212} + y_{2,00213} + y_{2,02003} + y_{2,02004} + y_{2,02112}
 + y_{2,20003} + y_{2,20004} + y_{2,20112} + z_{2,02112} + z_{2,20112} = 1
_C30: y_{5,20004} - y_{6,20003} - y_{6,20004} - z_{6,20112} <= 0
_C31: y_{5,02004} - y_{6,02003} - y_{6,02004} - z_{6,02112} <= 0
_C32: - y_{5,20003} - y_{5,20004} - y_{5,20112} + y_{6,20004} <= 0
_C33: - y_{5,02003} - y_{5,02004} - y_{5,02112} + y_{6,02004} <= 0
_C34: - y_{0,20003} - y_{0,20004} + y_{6,20004} - z_{0,20112} <= 0
_C35: - y_{0,02003} - y_{0,02004} + y_{6,02004} - z_{0,02112} <= 0
_C36: y_{0,20003} - y_{6,20003} - y_{6,20004} - y_{6,20112} <= 0
_C37: y_{0,02003} - y_{6,02003} - y_{6,02004} - y_{6,02112} <= 0
_C38: y_{0,20003} - y_{1,20003} - y_{1,20004} - z_{1,20112} <= 0
_C39: y_{0,02003} - y_{1,02003} - y_{1,02004} - z_{1,02112} <= 0
_C4: y_{3,00212} + y_{3,00213} + y_{3,02003} + y_{3,02004} + y_{3,02112}
 + y_{3,20003} + y_{3,20004} + y_{3,20112} + z_{3,02112} + z_{3,20112} = 1
_C40: - y_{0,20003} - y_{0,20004} - y_{0,20112} + y_{1,20003} <= 0
_C41: - y_{0,02003} - y_{0,02004} - y_{0,02112} + y_{1,02003} <= 0
_C42: y_{1,20003} - y_{2,20003} - y_{2,20004} - z_{2,20112} <= 0
_C43: y_{1,02003} - y_{2,02003} - y_{2,02004} - z_{2,02112} <= 0
_C44: - y_{1,20003} - y_{1,20004} - y_{1,20112} + y_{2,20003} <= 0
_C45: - y_{1,02003} - y_{1,02004} - y_{1,02112} + y_{2,02003} <= 0
_C46: y_{2,20003} - y_{3,20003} - y_{3,20004} - z_{3,20112} <= 0
_C47: y_{2,02003} - y_{3,02003} - y_{3,02004} - z_{3,02112} <= 0
_C48: - y_{2,20003} - y_{2,20004} - y_{2,20112} + y_{3,20003} <= 0
_C49: - y_{2,02003} - y_{2,02004} - y_{2,02112} + y_{3,02003} <= 0
_C5: y_{4,00212} + y_{4,00213} + y_{4,02003} + y_{4,02004} + y_{4,02112}
 + y_{4,20003} + y_{4,20004} + y_{4,20112} + z_{4,02112} + z_{4,20112} = 1
_C50: y_{3,20003} - y_{4,20003} - y_{4,20004} - z_{4,20112} <= 0
_C51: y_{3,02003} - y_{4,02003} - y_{4,02004} - z_{4,02112} <= 0
_C52: - y_{3,20003} - y_{3,20004} - y_{3,20112} + y_{4,20003} <= 0
_C53: - y_{3,02003} - y_{3,02004} - y_{3,02112} + y_{4,02003} <= 0
_C54: y_{4,20003} - y_{5,20003} - y_{5,20004} - z_{5,20112} <= 0
_C55: y_{4,02003} - y_{5,02003} - y_{5,02004} - z_{5,02112} <= 0
_C56: - y_{4,20003} - y_{4,20004} - y_{4,20112} + y_{5,20003} <= 0
_C57: - y_{4,02003} - y_{4,02004} - y_{4,02112} + y_{5,02003} <= 0
_C58: y_{5,20003} - y_{6,20003} - y_{6,20004} - z_{6,20112} <= 0
_C59: y_{5,02003} - y_{6,02003} - y_{6,02004} - z_{6,02112} <= 0
_C6: y_{5,00212} + y_{5,00213} + y_{5,02003} + y_{5,02004} + y_{5,02112}
 + y_{5,20003} + y_{5,20004} + y_{5,20112} + z_{5,02112} + z_{5,20112} = 1
_C60: - y_{5,20003} - y_{5,20004} - y_{5,20112} + y_{6,20003} <= 0
_C61: - y_{5,02003} - y_{5,02004} - y_{5,02112} + y_{6,02003} <= 0
_C62: - y_{0,20003} - y_{0,20004} + y_{6,20003} - z_{0,20112} <= 0
_C63: - y_{0,02003} - y_{0,02004} + y_{6,02003} - z_{0,02112} <= 0
_C64: y_{0,02112} + y_{0,20112} - y_{6,00212} - y_{6,00213} - z_{6,02112}
 - z_{6,20112} <= 0
_C65: y_{0,20112} - y_{1,20003} - y_{1,20004} - z_{1,20112} <= 0
_C66: y_{0,02112} - y_{1,02003} - y_{1,02004} - z_{1,02112} <= 0
_C67: - y_{0,00212} - y_{0,00213} + y_{1,02112} + y_{1,20112} - z_{0,02112}
 - z_{0,20112} <= 0
_C68: y_{1,20112} - y_{2,20003} - y_{2,20004} - z_{2,20112} <= 0
_C69: y_{1,02112} - y_{2,02003} - y_{2,02004} - z_{2,02112} <= 0
_C7: y_{6,00212} + y_{6,00213} + y_{6,02003} + y_{6,02004} + y_{6,02112}
 + y_{6,20003} + y_{6,20004} + y_{6,20112} + z_{6,02112} + z_{6,20112} = 1
_C70: - y_{1,00212} - y_{1,00213} + y_{2,02112} + y_{2,20112} - z_{1,02112}
 - z_{1,20112} <= 0
_C71: y_{2,20112} - y_{3,20003} - y_{3,20004} - z_{3,20112} <= 0
_C72: y_{2,02112} - y_{3,02003} - y_{3,02004} - z_{3,02112} <= 0
_C73: - y_{2,00212} - y_{2,00213} + y_{3,02112} + y_{3,20112} - z_{2,02112}
 - z_{2,20112} <= 0
_C74: y_{3,20112} - y_{4,20003} - y_{4,20004} - z_{4,20112} <= 0
_C75: y_{3,02112} - y_{4,02003} - y_{4,02004} - z_{4,02112} <= 0
_C76: - y_{3,00212} - y_{3,00213} + y_{4,02112} + y_{4,20112} - z_{3,02112}
 - z_{3,20112} <= 0
_C77: y_{4,20112} - y_{5,20003} - y_{5,20004} - z_{5,20112} <= 0
_C78: y_{4,02112} - y_{5,02003} - y_{5,02004} - z_{5,02112} <= 0
_C79: - y_{4,00212} - y_{4,00213} + y_{5,02112} + y_{5,20112} - z_{4,02112}
 - z_{4,20112} <= 0
_C8: y_{0,20004} - y_{6,20003} - y_{6,20004} - y_{6,20112} <= 0
_C80: y_{5,20112} - y_{6,20003} - y_{6,20004} - z_{6,20112} <= 0
_C81: y_{5,02112} - y_{6,02003} - y_{6,02004} - z_{6,02112} <= 0
_C82: - y_{5,00212} - y_{5,00213} + y_{6,02112} + y_{6,20112} - z_{5,02112}
 - z_{5,20112} <= 0
_C83: - y_{0,20003} - y_{0,20004} + y_{6,20112} - z_{0,20112} <= 0
_C84: - y_{0,02003} - y_{0,02004} + y_{6,02112} - z_{0,02112} <= 0
_C85: - y_{6,20003} - y_{6,20004} - y_{6,20112} + z_{0,20112} <= 0
_C86: - y_{6,02003} - y_{6,02004} - y_{6,02112} + z_{0,02112} <= 0
_C87: - y_{1,00212} - y_{1,00213} - y_{1,02112} - y_{1,20112} + z_{0,02112}
 + z_{0,20112} <= 0
_C88: - y_{0,20003} - y_{0,20004} - y_{0,20112} + z_{1,20112} <= 0
_C89: - y_{0,02003} - y_{0,02004} - y_{0,02112} + z_{1,02112} <= 0
_C9: y_{0,02004} - y_{6,02003} - y_{6,02004} - y_{6,02112} <= 0
_C90: - y_{2,00212} - y_{2,00213} - y_{2,02112} - y_{2,20112} + z_{1,02112}
 + z_{1,20112} <= 0
_C91: - y_{1,20003} - y_{1,20004} - y_{1,20112} + z_{2,20112} <= 0
_C92: - y_{1,02003} - y_{1,02004} - y_{1,02112} + z_{2,02112} <= 0
_C93: - y_{3,00212} - y_{3,00213} - y_{3,02112} - y_{3,20112} + z_{2,02112}
 + z_{2,20112} <= 0
_C94: - y_{2,20003} - y_{2,20004} - y_{2,20112} + z_{3,20112} <= 0
_C95: - y_{2,02003} - y_{2,02004} - y_{2,02112} + z_{3,02112} <= 0
_C96: - y_{4,00212} - y_{4,00213} - y_{4,02112} - y_{4,20112} + z_{3,02112}
 + z_{3,20112} <= 0
_C97: - y_{3,20003} - y_{3,20004} - y_{3,20112} + z_{4,20112} <= 0
_C98: - y_{3,02003} - y_{3,02004} - y_{3,02112} + z_{4,02112} <= 0
_C99: - y_{5,00212} - y_{5,00213} - y_{5,02112} - y_{5,20112} + z_{4,02112}
 + z_{4,20112} <= 0
Bounds
 0 <= N
 __dummy = 0
 0 <= s
 0 <= y_{00033}
 0 <= y_{02012}
 0 <= y_{20012}
 0 <= y_{22002}
Generals
N
s
y_{00033}
y_{02012}
y_{20012}
y_{22002}
Binaries
y_{0,00212}
y_{0,00213}
y_{0,02003}
y_{0,02004}
y_{0,02112}
y_{0,20003}
y_{0,20004}
y_{0,20112}
y_{1,00212}
y_{1,00213}
y_{1,02003}
y_{1,02004}
y_{1,02112}
y_{1,20003}
y_{1,20004}
y_{1,20112}
y_{2,00212}
y_{2,00213}
y_{2,02003}
y_{2,02004}
y_{2,02112}
y_{2,20003}
y_{2,20004}
y_{2,20112}
y_{3,00212}
y_{3,00213}
y_{3,02003}
y_{3,02004}
y_{3,02112}
y_{3,20003}
y_{3,20004}
y_{3,20112}
y_{4,00212}
y_{4,00213}
y_{4,02003}
y_{4,02004}
y_{4,02112}
y_{4,20003}
y_{4,20004}
y_{4,20112}
y_{5,00212}
y_{5,00213}
y_{5,02003}
y_{5,02004}
y_{5,02112}
y_{5,20003}
y_{5,20004}
y_{5,20112}
y_{6,00212}
y_{6,00213}
y_{6,02003}
y_{6,02004}
y_{6,02112}
y_{6,20003}
y_{6,20004}
y_{6,20112}
z_{0,02112}
z_{0,20112}
z_{1,02112}
z_{1,20112}
z_{2,02112}
z_{2,20112}
z_{3,02112}
z_{3,20112}
z_{4,02112}
z_{4,20112}
z_{5,02112}
z_{5,20112}
z_{6,02112}
z_{6,20112}
End
